s td 60 28 140
b 1 7 13 16 17 25 38 40 47 55 56 58 66 70 86 90 96 111 113
b 2 8 26 27 30 31 33 40 42 49 60 61 68 72 77 91 92 112 123
b 3 1 2 28 38 46 54 57 62 63 74 76 84 85 88 99 114 122 136
b 4 3 6 29 31 35 36 50 76 81 82 83 87 98 101 106 128 131 138
b 5 3 6 29 31 35 36 76 82 83 92 98 101 106 128 131 138
b 6 1 2 25 28 38 57 62 63 76 84 85 88 99 114 122 136
b 7 4 5 11 14 29 31 34 43 48 59 73 79 80 94 100 105 107 108 110 115 117 118 120 124 125 135 138
b 8 5 11 14 29 31 34 43 48 59 73 79 80 94 100 101 105 107 108 110 115 117 118 120 124 125 135 138
b 9 5 11 29 31 34 43 48 59 73 76 79 80 94 100 101 105 107 108 110 115 117 118 120 124 125 135 138
b 10 5 11 29 31 34 43 48 73 76 79 80 92 94 100 101 105 107 108 110 115 117 118 120 124 125 135 138
b 11 5 11 31 34 40 43 48 76 79 80 92 94 110 120 124 135
b 12 11 29 31 34 43 48 73 76 79 80 92 94 100 101 105 107 108 115 117 118 120 124 125 131 138
b 13 11 29 31 43 48 73 76 79 80 92 94 100 101 105 107 115 117 118 120 124 125 128 131 138
b 14 11 29 31 43 48 76 79 80 92 100 101 105 106 107 115 117 118 120 124 125 128 131 138
b 15 11 29 31 43 48 76 79 92 98 100 101 105 106 107 115 117 120 124 125 128 131 138
b 16 11 29 31 43 76 79 83 92 98 100 101 105 106 107 115 117 120 124 128 131 138
b 17 11 29 31 43 76 79 82 83 92 98 101 105 106 107 115 117 124 128 131 138
b 18 11 29 31 36 43 76 79 82 83 92 98 101 106 107 115 117 128 131 138
b 19 6 11 29 31 36 43 76 82 83 92 98 101 106 107 115 128 131 138
b 20 3 6 11 29 31 36 76 82 83 92 98 101 106 115 128 131 138
b 21 9 12 15 18 21 22 32 37 38 39 44 65 67 71 76 78 93 102 109 114 116 119 127 129 133 134 140
b 22 12 15 18 21 22 32 37 38 39 44 65 67 71 76 78 93 102 109 114 116 119 122 127 129 133 134 140
b 23 15 18 21 22 32 37 38 39 44 65 67 71 76 78 84 93 102 109 114 116 119 122 127 129 133 134 140
b 24 18 21 22 25 32 37 38 39 44 65 67 71 76 78 84 93 102 109 114 116 119 122 127 129 133 134 140
b 25 18 21 22 25 32 38 39 44 65 71 76 78 84 93 102 109 114 116 119 122 127 129 133 136 140
b 26 18 21 22 25 32 38 39 65 71 76 78 84 93 99 102 109 114 119 122 127 129 133 136 140
b 27 18 21 22 25 32 38 39 65 76 78 84 88 93 99 109 114 119 122 127 129 133 136 140
b 28 18 21 22 25 38 39 65 76 78 84 85 88 99 109 114 119 122 127 129 133 136 140
b 29 18 21 22 25 38 39 63 65 76 78 84 85 88 99 109 114 119 122 127 129 136
b 30 18 21 22 25 38 39 62 63 65 76 78 84 85 88 99 109 114 122 129 136
b 31 18 22 25 28 38 39 62 63 65 76 84 85 88 99 109 114 122 129 136
b 32 2 18 25 28 38 39 62 63 76 84 85 88 99 109 114 122 129 136
b 33 1 2 25 28 38 39 62 63 76 84 85 88 99 114 122 129 136
b 34 5 10 11 19 20 23 24 31 34 41 43 48 53 64 68 69 75 79 80 94 95 110 120 123 124 135 137
b 35 8 26 30 31 33 40 42 60 61 64 68 72 77 80 92 112 123
b 36 23 26 30 31 33 40 42 43 60 61 64 68 72 77 80 92 112 123
b 37 23 30 31 33 34 40 42 43 60 61 64 68 72 77 80 92 95 112 123
b 38 23 31 33 34 40 42 43 48 53 60 61 64 68 72 77 80 92 95 112 123
b 39 5 20 23 31 34 40 42 43 48 53 60 61 64 68 72 77 80 92 95 112 123
b 40 5 20 23 24 31 34 40 43 48 53 60 61 64 68 72 77 80 92 95 110 112 123
b 41 5 20 23 24 31 34 40 43 48 53 61 64 68 72 77 80 92 94 95 110 112 123 137
b 42 5 20 23 24 31 34 40 43 48 53 64 68 72 75 77 80 92 94 95 110 112 123 124 137
b 43 5 20 23 24 31 34 40 43 48 53 64 68 69 75 77 80 92 94 95 110 112 120 123 124 137
b 44 5 11 20 23 24 31 34 40 43 48 53 64 68 69 75 77 79 80 92 94 95 110 120 123 124 135 137
b 45 5 11 20 23 24 31 34 40 41 43 48 53 64 68 69 75 77 79 80 94 95 110 120 123 124 135 137
b 46 5 11 19 20 23 24 31 34 41 43 48 53 64 68 69 75 77 79 80 94 95 110 120 123 124 135 137
b 47 7 13 25 37 38 44 51 56 58 65 66 67 70 71 76 78 86 90 93 96 103 109 113 119 129 132 133 134
b 48 7 13 25 38 51 55 56 58 66 70 76 78 86 90 96 103 113 119 129 132
b 49 7 13 25 38 51 55 56 58 66 70 76 86 90 96 103 111 113 119 129
b 50 7 13 25 38 47 51 55 56 58 66 70 76 86 90 96 111 113 119
b 51 7 13 25 38 40 47 55 56 58 66 70 76 86 90 96 111 113
b 52 7 13 37 38 44 51 56 58 65 66 67 70 71 78 86 90 93 96 103 109 113 119 129 132 133 134 139
b 53 7 13 37 38 44 51 56 58 65 66 67 70 71 78 86 93 96 103 109 113 119 129 130 132 133 134 139
b 54 7 13 37 38 44 51 56 58 65 66 67 70 71 78 86 93 96 103 109 119 126 129 130 132 133 134 139
b 55 7 13 37 38 44 51 56 58 65 66 67 70 71 78 86 93 103 109 119 121 126 129 130 132 133 134 139
b 56 7 13 37 38 44 51 56 65 66 67 70 71 78 86 93 103 104 109 119 121 126 129 130 132 133 134 139
b 57 13 37 38 44 51 56 65 66 67 70 71 78 86 93 97 103 104 109 119 121 126 129 130 132 133 134 139
b 58 13 37 38 44 51 65 66 67 70 71 78 86 89 93 97 103 104 109 119 121 126 129 130 132 133 134 139
b 59 37 38 44 51 52 65 66 67 70 71 78 86 89 93 97 103 104 109 119 121 126 129 130 132 133 134 139
b 60 37 38 44 45 51 52 65 66 67 71 78 86 89 93 97 103 104 109 119 121 126 129 130 132 133 134 139
1 51
2 35
3 6
4 5
5 20
6 33
7 8
8 9
9 10
10 12
10 11
11 44
11 51
12 13
13 14
14 15
15 16
16 17
17 18
18 19
19 20
21 22
22 23
23 24
24 47
24 25
25 26
26 27
27 28
28 29
29 30
30 31
31 32
32 33
34 46
35 36
36 37
37 38
38 39
39 40
40 41
41 42
42 43
43 44
44 45
45 46
47 48
47 52
48 49
49 50
50 51
52 53
53 54
54 55
55 56
56 57
57 58
58 59
59 60
